n = 40;
m = 74;
w = [6,10,8,9,4,2,2,2,3,4,3,2,3,2,3,9,1,3,6,7,9,5,2,9,5,7,6,10,9,8,2,2,5,5,3,5,3,4,10,3,5,5,6,2,1,8,10,6,4,8,6,10,10,4,6,2,9,10,9,7,4,3,3,5,1,5,6,4,8,1,9,10,6,5];
edges = array2d(1..m, 1..2, [1,10,1,22,1,26,1,28,1,31,2,4,2,7,2,17,3,14,3,39,4,16,4,27,4,31,4,35,5,8,5,26,5,27,5,29,6,9,6,16,6,38,6,40,7,9,7,24,7,25,7,33,8,11,8,13,8,19,8,22,8,24,8,40,9,26,9,31,10,30,11,24,12,13,12,14,13,17,14,15,14,19,14,21,14,25,15,37,16,17,16,23,16,24,16,25,17,33,18,28,19,27,19,30,19,34,20,23,20,24,20,29,21,34,21,37,22,36,23,28,24,33,24,40,25,30,25,37,26,33,26,34,26,36,27,37,27,39,28,29,29,33,30,31,32,36,32,40]);
